20170707 100 0 0 0
20150626 25 0 0 0
20140620 62 0 0 0
20130422 120 0 0 0
20120524 100 0 0 0
20110526 100 0 0 0
20100524 100 0 0 0
20090521 200 10000 0 0
20080423 500 0 0 0
20070528 350 0 0 0
20060516 350 1500 0 0
20060113 0 3300 0 0
20050617 250 0 0 0
